NAME : XML100_2361_17
DIMENSION : 101
NB_CLUSTERS : 8
CLUSTERING_ALG : DBSCAN
CLUSTERING_PARAMS : eps(140), minSamples(3)
CLUSTERS
1 0
2 1 6 25 72 92 93 95
3 2 3 4 5 7 9 10 11 12 15 21 23 24 28 30 31 32 33 36 37 38 39 40 41 42 44 46 52 55 56 57 58 60 61 62 63 65 67 68 70 75 80 82 85 86 88 89 90 94 98 99 100
4 13 22 26 27 29 35 49 51 54 64 66 69 74 84
5 14 20 73 77 83
6 16 17 18 43 45 47 48 59 76 78 79 81 87 91 96
7 19 34 50 97
8 8 53 71
EOF